c is-unsat
p cnf 10 68
-3 9 -8 0
-4 7 5 0
-1 7 9 0
-10 1 -9 0
9 2 -5 0
-1 10 2 0
-10 -4 -8 0
6 -4 -8 0
-1 -4 -8 0
-7 -5 -2 0
-9 3 10 0
4 -5 -9 0
6 4 -9 0
-7 -4 -6 0
-4 6 3 0
-1 -7 -10 0
-6 -7 -8 0
6 -10 -3 0
3 -9 -8 0
5 -10 8 0
8 -9 4 0
-3 -2 -10 0
-6 -7 -9 0
7 4 -1 0
-1 8 -5 0
4 -5 8 0
5 -9 -8 0
-7 -8 -3 0
-6 -2 -3 0
5 -7 -8 0
6 -3 2 0
3 -6 -1 0
-6 5 4 0
-9 2 -5 0
-10 -9 -5 0
-7 -6 -4 0
-2 -6 -5 0
-1 3 -6 0
-2 5 -3 0
3 6 -2 0
-8 -1 -3 0
3 6 -7 0
-9 4 3 0
-2 -3 -7 0
-4 8 -5 0
-1 10 -2 0
10 -9 8 0
-7 -9 2 0
-9 10 7 0
-9 -10 -5 0
-10 -1 -2 0
-2 -9 -8 0
-3 -2 -5 0
-5 8 2 0
-6 -5 -8 0
-4 -8 9 0
6 1 -3 0
6 -5 1 0
-10 -2 -6 0
-9 -8 -1 0
-5 -1 -3 0
-5 -1 6 0
8 -7 -9 0
6 1 5 0
-2 -5 9 0
8 -10 -1 0
-1 -5 -8 0
-9 7 10 0
